\ LP format - for model browsing. Use MPS format to capture full model detail.
Minimize
 [ 39.49789020474341 w_0 ^2 + 6.003130618015533 w_1 ^2
   + 21.6551353565622 w_2 ^2 + 118.4936706142302 w_3 ^2
   + 13.76316778474233 w_4 ^2 + 6109.549614520841 w_5 ^2
   + 12.59077625668039 w_6 ^2 + 197.4894510237171 w_7 ^2
   + 5.879332365926651 w_8 ^2 + 3.023332427567492 w_9 ^2
   + 12.93512537451468 w_10 ^2 + 4.661872468457138 w_11 ^2
   + 37.15794891968947 w_12 ^2 + 15.59825682270797 w_13 ^2
   + 6.807419608796872 w_14 ^2 + 197.4894510237171 w_15 ^2
   + 6109.549614520841 w_16 ^2 + 197.4894510237171 w_17 ^2
   + 64.87630236918967 w_18 ^2 + 15.59825682270797 w_19 ^2
   + 8.975537435980467 w_20 ^2 + 64.87630236918967 w_21 ^2
   + 17.75285350074785 w_22 ^2 + 21.6551353565622 w_23 ^2
   + 13.01875923388176 w_24 ^2 + 4.657259769935461 w_25 ^2
   + 6109.549614520841 w_26 ^2 + 118.4936706142302 w_27 ^2
   + 37.15794891968947 w_28 ^2 + 9.59364499384492 w_29 ^2
   + 15.38580636731481 w_30 ^2 + 46.34021597799263 w_31 ^2
   + 26.46738765802046 w_32 ^2 + 6109.549614520841 w_33 ^2
   + 11.70320867217995 w_34 ^2 + 64.87630236918967 w_35 ^2
   + 64.87630236918967 w_36 ^2 + 39.49789020474341 w_37 ^2
   + 7.859413962904658 w_38 ^2 + 197.4894510237171 w_39 ^2
   + 26.46738765802046 w_40 ^2 + 7.104099873433016 w_41 ^2
   + 8.883004623930482 w_42 ^2 + 15.59825682270797 w_43 ^2
   + 4.430162640289564 w_44 ^2 + 2036.516538173614 w_45 ^2
   + 5.871924603841925 w_46 ^2 + 21.6551353565622 w_47 ^2
   + 16.84288305510393 w_48 ^2 + 26.46738765802046 w_49 ^2
   + 15.59825682270797 w_50 ^2 + 6109.549614520841 w_51 ^2
   + 118.4936706142302 w_52 ^2 + 6109.549614520841 w_53 ^2
   + 8.132813098436138 w_54 ^2 + 197.4894510237171 w_55 ^2
   + 11.35386041376201 w_56 ^2 + 7.66771157581919 w_57 ^2
   + 9.268043195598525 w_58 ^2 + 197.4894510237171 w_59 ^2
   + 37.15794891968947 w_60 ^2 + 5.989321784739023 w_61 ^2
   + 118.4936706142302 w_62 ^2 + 2036.516538173614 w_63 ^2
   + 15.59825682270797 w_64 ^2 + 118.4936706142302 w_65 ^2
   + 15.38580636731481 w_66 ^2 + 4.487617690454563 w_67 ^2
   + 6109.549614520841 w_68 ^2 + 2036.516538173614 w_69 ^2
   + 21.01274571603701 w_70 ^2 + 118.4936706142302 w_71 ^2
   + 197.4894510237171 w_72 ^2 + 13.01875923388176 w_73 ^2
   + 8.172364254016044 w_74 ^2 + 26.46738765802046 w_75 ^2
   + 5.597317010099848 w_76 ^2 + 17.78001560587747 w_77 ^2
   + 28.90062693753625 w_78 ^2 + 197.4894510237171 w_79 ^2
   + 2036.516538173614 w_80 ^2 + 6.659269710566153 w_81 ^2
   + 15.59825682270797 w_82 ^2 + 28.90062693753625 w_83 ^2
   + 6109.549614520841 w_84 ^2 + 118.4936706142302 w_85 ^2
   + 4.977240338949174 w_86 ^2 + 8.549880436817478 w_87 ^2
   + 6109.549614520841 w_88 ^2 + 17.78001560587747 w_89 ^2
   + 197.4894510237171 w_90 ^2 + 39.49789020474341 w_91 ^2
   + 6109.549614520841 w_92 ^2 + 4.285803043489446 w_93 ^2
   + 4.110291564009663 w_94 ^2 + 13.01875923388176 w_95 ^2
   + 6109.549614520841 w_96 ^2 + 12.03063075364567 w_97 ^2
   + 10.78113191556839 w_98 ^2 + 2.607493448966607 w_99 ^2
   + 6109.549614520841 w_100 ^2 + 46.34021597799263 w_101 ^2
   + 9.183927187336034 w_102 ^2 + 26.46738765802046 w_103 ^2
   + 21.6551353565622 w_104 ^2 + 21.01274571603701 w_105 ^2
   + 5.287992479792381 w_106 ^2 + 17.78001560587747 w_107 ^2
   + 12.59077625668039 w_108 ^2 + 197.4894510237171 w_109 ^2
   + 8.146972871969661 w_110 ^2 + 39.49789020474341 w_111 ^2
   + 197.4894510237171 w_112 ^2 + 6.807419608796872 w_113 ^2
   + 2036.516538173614 w_114 ^2 + 15.59825682270797 w_115 ^2
   + 20.64330495538303 w_116 ^2 + 64.87630236918967 w_117 ^2
   + 11.92807874677669 w_118 ^2 + 6109.549614520841 w_119 ^2
   + 118.4936706142302 w_120 ^2 + 197.4894510237171 w_121 ^2
   + 2036.516538173614 w_122 ^2 + 37.15794891968947 w_123 ^2
   + 6109.549614520841 w_124 ^2 + 15.38580636731481 w_125 ^2
   + 8.975537435980467 w_126 ^2 + 6109.549614520841 w_127 ^2
   + 197.4894510237171 w_128 ^2 + 5.434309400507051 w_129 ^2
   + 14.07204405158396 w_130 ^2 + 10.78113191556839 w_131 ^2
   + 197.4894510237171 w_132 ^2 + 2036.516538173614 w_133 ^2
   + 15.38580636731481 w_134 ^2 + 197.4894510237171 w_135 ^2
   + 197.4894510237171 w_136 ^2 + 6109.549614520841 w_137 ^2
   + 5.917617833582618 w_138 ^2 + 46.34021597799263 w_139 ^2
   + 2036.516538173614 w_140 ^2 + 64.87630236918967 w_141 ^2
   + 197.4894510237171 w_142 ^2 + 14.54728549571793 w_143 ^2
   + 6109.549614520841 w_144 ^2 + 5.138071310261033 w_145 ^2
   + 3.674691684467415 w_146 ^2 + 6109.549614520841 w_147 ^2
   + 6109.549614520841 w_148 ^2 + 5.348465677619896 w_149 ^2
   + 17.75285350074785 w_150 ^2 + 37.15794891968947 w_151 ^2
   + 11.00701545899607 w_152 ^2 + 6109.549614520841 w_153 ^2
   + 6109.549614520841 w_154 ^2 + 46.34021597799263 w_155 ^2
   + 118.4936706142302 w_156 ^2 + 6.047476406529436 w_157 ^2
   + 6109.549614520841 w_158 ^2 + 2036.516538173614 w_159 ^2
   + 118.4936706142302 w_160 ^2 + 6.961195224286983 w_161 ^2
   + 8.196519270703272 w_162 ^2 + 46.34021597799263 w_163 ^2
   + 197.4894510237171 w_164 ^2 + 15.59825682270797 w_165 ^2
   + 6109.549614520841 w_166 ^2 + 4.71238923790745 w_167 ^2
   + 14.07204405158396 w_168 ^2 + 21.6551353565622 w_169 ^2
   + 37.15794891968947 w_170 ^2 + 197.4894510237171 w_171 ^2
   + 17.75285350074785 w_172 ^2 + 9.59364499384492 w_173 ^2
   + 118.4936706142302 w_174 ^2 + 118.4936706142302 w_175 ^2
   + 37.15794891968947 w_176 ^2 + 5.78776982085436 w_177 ^2
   + 28.90062693753625 w_178 ^2 + 39.49789020474341 w_179 ^2
   + 197.4894510237171 w_180 ^2 + 17.78001560587747 w_181 ^2
   + 10.47129196984522 w_182 ^2 + 4.256695268826579 w_183 ^2
   + 14.54728549571793 w_184 ^2 + 6109.549614520841 w_185 ^2
   + 12.38598297322982 w_186 ^2 + 27.80412958679558 w_187 ^2
   + 6109.549614520841 w_188 ^2 + 2036.516538173614 w_189 ^2
   + 118.4936706142302 w_190 ^2 + 10.44555158066105 w_191 ^2
   + 7.466545731557252 w_192 ^2 + 9.95872827242502 w_193 ^2
   + 46.34021597799263 w_194 ^2 + 5.957714483512429 w_195 ^2
   + 37.15794891968947 w_196 ^2 + 9.183927187336034 w_197 ^2
   + 5.001919238726052 w_198 ^2 + 118.4936706142302 w_199 ^2
   + 197.4894510237171 w_200 ^2 + 27.80412958679558 w_201 ^2
   + 197.4894510237171 w_202 ^2 + 39.49789020474341 w_203 ^2
   + 118.4936706142302 w_204 ^2 + 64.87630236918967 w_205 ^2
   + 26.46738765802046 w_206 ^2 + 2036.516538173614 w_207 ^2
   + 6.706974738443604 w_208 ^2 + 64.87630236918967 w_209 ^2
   + 2036.516538173614 w_210 ^2 + 197.4894510237171 w_211 ^2
   + 4.016934136549804 w_212 ^2 + 6109.549614520841 w_213 ^2
   + 11.10950846177681 w_214 ^2 + 197.4894510237171 w_215 ^2
   + 46.34021597799263 w_216 ^2 + 197.4894510237171 w_217 ^2
   + 2036.516538173614 w_218 ^2 + 7.859413962904658 w_219 ^2
   + 5.769527685069114 w_220 ^2 + 64.87630236918967 w_221 ^2
   + 26.46738765802046 w_222 ^2 + 17.78001560587747 w_223 ^2
   + 5.644637696726749 w_224 ^2 + 20.64330495538303 w_225 ^2
   + 3.84317057636805 w_226 ^2 + 6109.549614520841 w_227 ^2
   + 15.59825682270797 w_228 ^2 + 26.46738765802046 w_229 ^2
   + 118.4936706142302 w_230 ^2 + 28.90062693753625 w_231 ^2
   + 7.532731362721134 w_232 ^2 + 6109.549614520841 w_233 ^2
   + 5.736683328785231 w_234 ^2 + 2036.516538173614 w_235 ^2
   + 2036.516538173614 w_236 ^2 + 12.03063075364567 w_237 ^2
   + 2036.516538173614 w_238 ^2 + 5.923381756670958 w_239 ^2
   + 118.4936706142302 w_240 ^2 + 39.49789020474341 w_241 ^2
   + 15.59825682270797 w_242 ^2 + 15.59825682270797 w_243 ^2
   + 20.64330495538303 w_244 ^2 + 6109.549614520841 w_245 ^2
   + 5.711031878175771 w_246 ^2 + 197.4894510237171 w_247 ^2
   + 1.495715796400565 w_248 ^2 + 64.87630236918967 w_249 ^2
   + 12.05530264556713 w_250 ^2 + 2036.516538173614 w_251 ^2
   + 10.78113191556839 w_252 ^2 + 197.4894510237171 w_253 ^2
   + 6109.549614520841 w_254 ^2 + 118.4936706142302 w_255 ^2
   + 6109.549614520841 w_256 ^2 + 9.982529551452211 w_257 ^2
   + 11.31455538555839 w_258 ^2 + 9.554604367334045 w_259 ^2
   + 197.4894510237171 w_260 ^2 + 10.78113191556839 w_261 ^2
   + 197.4894510237171 w_262 ^2 + 21.6551353565622 w_263 ^2
   + 197.4894510237171 w_264 ^2 + 21.01274571603701 w_265 ^2
   + 20.64330495538303 w_266 ^2 + 7.298678421673457 w_267 ^2
   + 7.138903880935108 w_268 ^2 + 6109.549614520841 w_269 ^2
   + 5.985300887559688 w_270 ^2 + 10.47129196984522 w_271 ^2
   + 197.4894510237171 w_272 ^2 + 2036.516538173614 w_273 ^2
   + 37.15794891968947 w_274 ^2 + 14.07204405158396 w_275 ^2
   + 28.90062693753625 w_276 ^2 + 9.95872827242502 w_277 ^2
   + 27.80412958679558 w_278 ^2 + 64.87630236918967 w_279 ^2
   + 8.725326965587355 w_280 ^2 + 8.623253235141776 w_281 ^2
   + 197.4894510237171 w_282 ^2 + 27.80412958679558 w_283 ^2
   + 5.640364265419872 w_284 ^2 + 6109.549614520841 w_285 ^2
   + 64.87630236918967 w_286 ^2 + 21.6551353565622 w_287 ^2
   + 21.6551353565622 w_288 ^2 + 4.320172890987302 w_289 ^2
   + 9.537242747560091 w_290 ^2 + 17.75285350074785 w_291 ^2
   + 46.34021597799263 w_292 ^2 + 2036.516538173614 w_293 ^2
   + 64.87630236918967 w_294 ^2 + 6.610096186051026 w_295 ^2
   + 6109.549614520841 w_296 ^2 + 2036.516538173614 w_297 ^2
   + 64.87630236918967 w_298 ^2 + 26.46738765802046 w_299 ^2
   + 9.268043195598525 w_300 ^2 + 16.84288305510393 w_301 ^2
   + 17.75285350074785 w_302 ^2 + 197.4894510237171 w_303 ^2
   + 2036.516538173614 w_304 ^2 + 2036.516538173614 w_305 ^2
   + 2036.516538173614 w_306 ^2 + 5.135247968757084 w_307 ^2
   + 6.788120094987503 w_308 ^2 + 3.453633507783644 w_309 ^2
   + 6109.549614520841 w_310 ^2 + 197.4894510237171 w_311 ^2
   + 13.76316778474233 w_312 ^2 + 2036.516538173614 w_313 ^2
   + 4.6223574522222 w_314 ^2 + 2036.516538173614 w_315 ^2
   + 6109.549614520841 w_316 ^2 + 2036.516538173614 w_317 ^2
   + 10.78113191556839 w_318 ^2 + 13.76316778474233 w_319 ^2
   + 5.121860903123896 w_320 ^2 + 21.6551353565622 w_321 ^2
   + 4.60044740169013 w_322 ^2 + 7.81740357327331 w_323 ^2
   + 6109.549614520841 w_324 ^2 + 118.4936706142302 w_325 ^2
   + 197.4894510237171 w_326 ^2 + 17.75285350074785 w_327 ^2
   + 6109.549614520841 w_328 ^2 + 64.87630236918967 w_329 ^2
   + 11.00701545899607 w_330 ^2 + 12.38598297322982 w_331 ^2
   + 28.90062693753625 w_332 ^2 + 6109.549614520841 w_333 ^2
   + 6109.549614520841 w_334 ^2 + 20.64330495538303 w_335 ^2
   + 3.427154243887135 w_336 ^2 + 14.54728549571793 w_337 ^2
   + 11.10950846177681 w_338 ^2 + 46.34021597799263 w_339 ^2
   + 5.64043339014598 w_340 ^2 + 15.38580636731481 w_341 ^2
   + 8.990679368409095 w_342 ^2 + 6109.549614520841 w_343 ^2
   + 10.44555158066105 w_344 ^2 + 21.6551353565622 w_345 ^2
   + 6109.549614520841 w_346 ^2 + 9.59364499384492 w_347 ^2
   + 11.10950846177681 w_348 ^2 + 4.438767024730267 w_349 ^2
   + 118.4936706142302 w_350 ^2 + 4.208570190793094 w_351 ^2
   + 2036.516538173614 w_352 ^2 + 15.38580636731481 w_353 ^2
   + 118.4936706142302 w_354 ^2 + 6109.549614520841 w_355 ^2
   + 39.49789020474341 w_356 ^2 + 197.4894510237171 w_357 ^2
   + 2036.516538173614 w_358 ^2 + 28.90062693753625 w_359 ^2
   + 16.84288305510393 w_360 ^2 + 37.15794891968947 w_361 ^2
   + 21.01274571603701 w_362 ^2 + 6109.549614520841 w_363 ^2
   + 197.4894510237171 w_364 ^2 + 39.49789020474341 w_365 ^2
   + 3.904680990556906 w_366 ^2 + 197.4894510237171 w_367 ^2
   + 21.6551353565622 w_368 ^2 + 6109.549614520841 w_369 ^2
   + 6109.549614520841 w_370 ^2 + 28.90062693753625 w_371 ^2
   + 6.659269710566153 w_372 ^2 + 6.604653147161639 w_373 ^2
   + 28.90062693753625 w_374 ^2 + 9.239375267510484 w_375 ^2
   + 27.80412958679558 w_376 ^2 + 5.989517730871326 w_377 ^2
   + 17.75285350074785 w_378 ^2 + 6109.549614520841 w_379 ^2
   + 13.76316778474233 w_380 ^2 + 118.4936706142302 w_381 ^2
   + 4.428299539534753 w_382 ^2 + 26.46738765802046 w_383 ^2
   + 197.4894510237171 w_384 ^2 + 6109.549614520841 w_385 ^2
   + 7.720625081358168 w_386 ^2 + 2036.516538173614 w_387 ^2
   + 8.623253235141776 w_388 ^2 + 2036.516538173614 w_389 ^2
   + 15.38580636731481 w_390 ^2 + 37.15794891968947 w_391 ^2
   + 21.6551353565622 w_392 ^2 + 14.07204405158396 w_393 ^2
   + 6109.549614520841 w_394 ^2 + 21.6551353565622 w_395 ^2
   + 5.157799732436398 w_396 ^2 + 64.87630236918967 w_397 ^2
   + 6.924547008758054 w_398 ^2 + 10.44555158066105 w_399 ^2
   + 21.01274571603701 w_400 ^2 ] / 2 
Subject To
 c: w_0 + w_1 + w_2 + w_3 + w_4 + w_5 + w_6 + w_7 + w_8 + w_9 + w_10 + w_11
   + w_12 + w_13 + w_14 + w_15 + w_16 + w_17 + w_18 + w_19 + w_20 + w_21
   + w_22 + w_23 + w_24 + w_25 + w_26 + w_27 + w_28 + w_29 + w_30 + w_31
   + w_32 + w_33 + w_34 + w_35 + w_36 + w_37 + w_38 + w_39 + w_40 + w_41
   + w_42 + w_43 + w_44 + w_45 + w_46 + w_47 + w_48 + w_49 + w_50 + w_51
   + w_52 + w_53 + w_54 + w_55 + w_56 + w_57 + w_58 + w_59 + w_60 + w_61
   + w_62 + w_63 + w_64 + w_65 + w_66 + w_67 + w_68 + w_69 + w_70 + w_71
   + w_72 + w_73 + w_74 + w_75 + w_76 + w_77 + w_78 + w_79 + w_80 + w_81
   + w_82 + w_83 + w_84 + w_85 + w_86 + w_87 + w_88 + w_89 + w_90 + w_91
   + w_92 + w_93 + w_94 + w_95 + w_96 + w_97 + w_98 + w_99 + w_100 + w_101
   + w_102 + w_103 + w_104 + w_105 + w_106 + w_107 + w_108 + w_109 + w_110
   + w_111 + w_112 + w_113 + w_114 + w_115 + w_116 + w_117 + w_118 + w_119
   + w_120 + w_121 + w_122 + w_123 + w_124 + w_125 + w_126 + w_127 + w_128
   + w_129 + w_130 + w_131 + w_132 + w_133 + w_134 + w_135 + w_136 + w_137
   + w_138 + w_139 + w_140 + w_141 + w_142 + w_143 + w_144 + w_145 + w_146
   + w_147 + w_148 + w_149 + w_150 + w_151 + w_152 + w_153 + w_154 + w_155
   + w_156 + w_157 + w_158 + w_159 + w_160 + w_161 + w_162 + w_163 + w_164
   + w_165 + w_166 + w_167 + w_168 + w_169 + w_170 + w_171 + w_172 + w_173
   + w_174 + w_175 + w_176 + w_177 + w_178 + w_179 + w_180 + w_181 + w_182
   + w_183 + w_184 + w_185 + w_186 + w_187 + w_188 + w_189 + w_190 + w_191
   + w_192 + w_193 + w_194 + w_195 + w_196 + w_197 + w_198 + w_199 + w_200
   + w_201 + w_202 + w_203 + w_204 + w_205 + w_206 + w_207 + w_208 + w_209
   + w_210 + w_211 + w_212 + w_213 + w_214 + w_215 + w_216 + w_217 + w_218
   + w_219 + w_220 + w_221 + w_222 + w_223 + w_224 + w_225 + w_226 + w_227
   + w_228 + w_229 + w_230 + w_231 + w_232 + w_233 + w_234 + w_235 + w_236
   + w_237 + w_238 + w_239 + w_240 + w_241 + w_242 + w_243 + w_244 + w_245
   + w_246 + w_247 + w_248 + w_249 + w_250 + w_251 + w_252 + w_253 + w_254
   + w_255 + w_256 + w_257 + w_258 + w_259 + w_260 + w_261 + w_262 + w_263
   + w_264 + w_265 + w_266 + w_267 + w_268 + w_269 + w_270 + w_271 + w_272
   + w_273 + w_274 + w_275 + w_276 + w_277 + w_278 + w_279 + w_280 + w_281
   + w_282 + w_283 + w_284 + w_285 + w_286 + w_287 + w_288 + w_289 + w_290
   + w_291 + w_292 + w_293 + w_294 + w_295 + w_296 + w_297 + w_298 + w_299
   + w_300 + w_301 + w_302 + w_303 + w_304 + w_305 + w_306 + w_307 + w_308
   + w_309 + w_310 + w_311 + w_312 + w_313 + w_314 + w_315 + w_316 + w_317
   + w_318 + w_319 + w_320 + w_321 + w_322 + w_323 + w_324 + w_325 + w_326
   + w_327 + w_328 + w_329 + w_330 + w_331 + w_332 + w_333 + w_334 + w_335
   + w_336 + w_337 + w_338 + w_339 + w_340 + w_341 + w_342 + w_343 + w_344
   + w_345 + w_346 + w_347 + w_348 + w_349 + w_350 + w_351 + w_352 + w_353
   + w_354 + w_355 + w_356 + w_357 + w_358 + w_359 + w_360 + w_361 + w_362
   + w_363 + w_364 + w_365 + w_366 + w_367 + w_368 + w_369 + w_370 + w_371
   + w_372 + w_373 + w_374 + w_375 + w_376 + w_377 + w_378 + w_379 + w_380
   + w_381 + w_382 + w_383 + w_384 + w_385 + w_386 + w_387 + w_388 + w_389
   + w_390 + w_391 + w_392 + w_393 + w_394 + w_395 + w_396 + w_397 + w_398
   + w_399 + w_400 = 1
Bounds
End
